*SENSE:Maximize
NAME          MODEL
ROWS
 N  OBJ
COLUMNS
    MARK      'MARKER'                 'INTORG'
    MARK      'MARKER'                 'INTEND'
    MARK      'MARKER'                 'INTORG'
    X0000001  OBJ        1.500000000000e+00
    MARK      'MARKER'                 'INTEND'
    MARK      'MARKER'                 'INTORG'
    MARK      'MARKER'                 'INTEND'
    MARK      'MARKER'                 'INTORG'
    X0000003  OBJ        1.500000000000e+00
    MARK      'MARKER'                 'INTEND'
    MARK      'MARKER'                 'INTORG'
    MARK      'MARKER'                 'INTEND'
    MARK      'MARKER'                 'INTORG'
    X0000005  OBJ        1.250000000000e-01
    MARK      'MARKER'                 'INTEND'
    MARK      'MARKER'                 'INTORG'
    MARK      'MARKER'                 'INTEND'
    MARK      'MARKER'                 'INTORG'
    X0000007  OBJ        1.250000000000e-01
    MARK      'MARKER'                 'INTEND'
    MARK      'MARKER'                 'INTORG'
    MARK      'MARKER'                 'INTEND'
    MARK      'MARKER'                 'INTORG'
    X0000009  OBJ        1.000000000000e-01
    MARK      'MARKER'                 'INTEND'
    MARK      'MARKER'                 'INTORG'
    MARK      'MARKER'                 'INTEND'
    MARK      'MARKER'                 'INTORG'
    X0000011  OBJ        1.000000000000e-01
    MARK      'MARKER'                 'INTEND'
RHS
BOUNDS
 LO BND       X0000001   0.000000000000e+00
 LO BND       X0000001   0.000000000000e+00
 LO BND       X0000003   0.000000000000e+00
 LO BND       X0000003   0.000000000000e+00
 LO BND       X0000005   0.000000000000e+00
 LO BND       X0000005   0.000000000000e+00
 LO BND       X0000007   0.000000000000e+00
 LO BND       X0000007   0.000000000000e+00
 LO BND       X0000009   0.000000000000e+00
 LO BND       X0000009   0.000000000000e+00
 LO BND       X0000011   0.000000000000e+00
 LO BND       X0000011   0.000000000000e+00
ENDATA
